c 183_4_checker_5cl.cnf
c
c field = 183
c formula set type = 4_checker_5cl
c
p cnf 5 6
360 
362 
366 
368 
-370 
361 
363 
367 
369 
-371 
304 
334 
394 
424 
-274 
305 
335 
395 
425 
-275 
308 
336 
392 
420 
-280 
309 
337 
393 
421 
-281 
